(declare-const a Real)
(declare-const b Real)
(declare-const c Real)
(assert (= (* a b c) 1))
(assert (> a 0))
(assert (> b 0))
(assert (> c 0))
(assert (not (<= (+ (* -413184 (pow a 4)) (* 1404 (pow (+ (* 2 a) (* 2 b)) 4)) (* -1900032 (pow a (/ 1152 1237)) (pow b (/ 3796 1237))) (* 153600 b (pow a 3)) (* 663552 (pow a (/ 5 3)) (pow b (/ 7 3))) (* 1136640 a (pow b 3))) 0)))
(check-sat)
(get-model)
(exit)